n = 70;
capacity = 100;
size = [80, 79, 78, 77, 75, 72, 72, 71, 71, 70, 70, 69, 66, 66, 64, 63, 62, 58, 57, 56, 55, 55, 54, 53, 52, 52, 48, 47, 46, 46, 45, 45, 45, 45, 44, 43, 41, 39, 39, 38, 38, 38, 37, 37, 37, 36, 36, 35, 34, 32, 32, 32, 31, 31, 30, 30, 30, 30, 29, 28, 28, 27, 27, 27, 26, 25, 22, 21, 20, 20];
